p cnf 28 170
-41 -44 -46 -48 -66 0
-89 0
-44 -46 -48 -63 -66 0
-46 -48 -63 -66 -69 0
-41 -46 -66 -73 -97 0
-46 -63 -66 -73 -97 0
-45 -63 -98 0
-73 -102 0
-41 -46 -48 -66 -103 0
-46 -48 -63 -66 -103 0
-41 -70 -98 0
-63 -70 -98 0
-7 -63 -98 -106 0
-8 -41 -44 -46 -66 -106 0
-8 -44 -46 -63 -66 -106 0
-44 -46 -63 -66 -74 0
-41 -46 -66 -69 -74 0
-8 -46 -63 -66 -69 -106 0
-46 -63 -66 -69 -74 0
-48 -67 -69 -106 0
-41 -44 -48 -66 -71 0
-44 -48 -63 -66 -71 0
-44 -48 -101 0
-41 -48 -66 -69 -71 0
-48 -63 -66 -69 -71 0
-48 -69 -101 0
-41 -48 -66 -71 -103 0
-48 -67 -103 -106 0
-48 -63 -66 -71 -103 0
-48 -101 -103 0
-44 -48 -67 -106 0
-44 -48 -67 -104 0
-48 -67 -69 -104 0
-48 -67 -103 -104 0
-44 -46 -48 -66 -85 0
-44 -46 -48 -66 -95 0
-44 -46 -48 -66 -99 0
-46 -48 -66 -69 -99 0
-46 -48 -66 -69 -85 0
-46 -48 -66 -69 -95 0
-41 -46 -48 -66 -69 0
-45 -98 -99 0
-7 -41 -98 -106 0
-70 -85 -98 0
-70 -95 -98 0
-70 -98 -99 0
-45 -85 -98 0
-7 -85 -98 -106 0
-7 -95 -98 -106 0
-45 -95 -98 0
-41 -45 -98 0
-7 -98 -99 -106 0
-41 -44 -48 -71 -96 0
-41 -44 -46 -48 -100 0
-41 -44 -46 -48 -96 0
-41 -44 -48 -71 -100 0
-8 -41 -44 -66 -71 -106 0
-44 -67 -74 -106 0
-41 -44 -46 -66 -74 0
-8 -44 -101 -106 0
-8 -44 -67 -106 0
-41 -44 -66 -71 -74 0
-44 -74 -101 0
-41 -44 -46 -74 -96 0
-44 -67 -74 -104 0
-41 -44 -46 -74 -100 0
-44 -46 -66 -74 -85 0
-44 -46 -66 -74 -95 0
-44 -46 -66 -74 -99 0
-41 -48 -69 -71 -100 0
-41 -46 -48 -96 -103 0
-41 -46 -48 -100 -103 0
-41 -46 -48 -69 -96 0
-41 -46 -48 -69 -100 0
-41 -48 -71 -100 -103 0
-41 -48 -71 -96 -103 0
-41 -48 -69 -71 -96 0
-48 -63 -71 -100 -103 0
-44 -46 -48 -85 -96 0
-44 -46 -48 -95 -96 0
-44 -46 -48 -96 -99 0
-44 -46 -48 -63 -96 0
-44 -46 -48 -95 -100 0
-44 -46 -48 -85 -100 0
-44 -46 -48 -99 -100 0
-44 -46 -48 -63 -100 0
-46 -48 -69 -85 -100 0
-46 -48 -63 -69 -96 0
-46 -48 -69 -95 -96 0
-46 -48 -69 -96 -99 0
-46 -48 -85 -96 -103 0
-46 -48 -66 -95 -103 0
-46 -48 -66 -99 -103 0
-46 -48 -95 -96 -103 0
-46 -48 -96 -99 -103 0
-46 -48 -69 -85 -96 0
-48 -63 -69 -71 -96 0
-44 -48 -71 -85 -96 0
-44 -48 -66 -71 -95 0
-44 -48 -66 -71 -99 0
-48 -66 -69 -71 -85 0
-48 -66 -69 -71 -95 0
-48 -66 -69 -71 -99 0
-48 -69 -71 -95 -96 0
-48 -69 -71 -85 -96 0
-48 -69 -71 -96 -99 0
-44 -48 -71 -85 -100 0
-48 -69 -71 -85 -100 0
-48 -69 -71 -95 -100 0
-44 -48 -71 -99 -100 0
-48 -69 -71 -99 -100 0
-46 -48 -63 -69 -100 0
-48 -63 -69 -71 -100 0
-44 -48 -66 -71 -85 0
-48 -66 -71 -85 -103 0
-48 -66 -71 -95 -103 0
-48 -66 -71 -99 -103 0
-46 -66 -74 -99 -103 0
-41 -66 -71 -74 -103 0
-41 -66 -69 -71 -74 0
-74 -101 -103 0
-8 -67 -69 -106 0
-8 -41 -66 -69 -71 -106 0
-8 -41 -66 -71 -103 -106 0
-8 -41 -46 -66 -103 -106 0
-8 -67 -103 -106 0
-8 -101 -103 -106 0
-8 -69 -101 -106 0
-8 -41 -46 -66 -69 -106 0
-8 -44 -46 -66 -85 -106 0
-8 -44 -46 -66 -95 -106 0
-8 -44 -46 -95 -96 -106 0
-8 -41 -44 -46 -100 -106 0
-8 -41 -46 -69 -100 -106 0
-8 -41 -46 -69 -96 -106 0
-8 -41 -46 -100 -103 -106 0
-8 -41 -46 -96 -103 -106 0
-8 -41 -44 -46 -96 -106 0
-8 -41 -69 -71 -96 -106 0
-8 -41 -44 -71 -100 -106 0
-41 -44 -71 -74 -100 0
-44 -48 -71 -95 -96 0
-44 -48 -71 -95 -100 0
-44 -48 -63 -71 -100 0
-44 -48 -63 -71 -96 0
-44 -48 -71 -96 -99 0
-46 -48 -95 -100 -103 0
-46 -48 -85 -100 -103 0
-46 -48 -99 -100 -103 0
-46 -48 -63 -96 -103 0
-46 -48 -63 -100 -103 0
-46 -48 -69 -95 -100 0
-46 -48 -69 -99 -100 0
-46 -48 -66 -85 -103 0
-46 -66 -74 -95 -103 0
-41 -46 -66 -74 -103 0
-67 -74 -103 -104 0
-41 -46 -69 -74 -96 0
-41 -46 -69 -74 -100 0
-41 -69 -71 -74 -96 0
-41 -69 -71 -74 -100 0
-63 -69 -71 -74 -100 0
-44 -46 -63 -74 -96 0
-46 -63 -69 -74 -96 0
-46 -63 -69 -74 -100 0
-67 -69 -74 -104 0
-69 -74 -101 0
-46 -63 -74 -96 -103 0
-8 -46 -63 -100 -103 -106 0
-8 -44 -63 -71 -96 -106 0
